1,0
2,0
3,0
4,0
5,1
6,1
7,0
8,0
9,1
10,1
11,0
12,1
13,1
14,1
15,1
16,1
17,0
18,1
19,0
20,1
21,0
22,0
23,1
24,0
25,0
26,0
27,0
28,0
29,0
30,1
31,1
32,1
33,1
34,0
35,1
36,0
37,0
38,1
39,1
40,1
41,0
42,0
43,1
44,1
45,0
46,1
47,1
48,1
49,1
50,1
51,1
52,1
53,1
54,1
55,1
56,1
57,1
58,1
59,1
60,1
61,1
62,1
63,0
64,0
65,0
66,1
67,1
68,1
69,1
70,1
71,0
72,0
73,1
74,1
75,1
76,1
77,1
78,0
79,1
80,1
81,1
82,1
83,1
84,1
85,1
86,1
87,1
88,1
89,1
90,1
91,1
92,0
93,1
94,0
95,1
96,1
97,1
98,1
99,0
100,1
101,1
102,1
103,1
104,1
105,1
106,1
107,1
108,1
109,0
110,0
111,1
112,1
113,1
114,1
115,1
116,1
117,0
118,0
119,1
120,1
121,1
122,1
123,1
124,1
125,1
126,1
127,1
128,1
129,1
130,1
131,0
132,1
133,1
134,1
135,1
136,0
137,0
138,0
139,1
140,1
141,0
142,0
143,1
144,1
145,1
146,0
147,1
148,1
149,1
150,1
151,1
152,1
153,1
154,1
155,1
156,1
157,1
158,1
159,1
160,1
161,1
162,1
163,1
164,1
165,1
166,1
167,1
168,1
169,1
170,1
171,1
172,1
173,0
174,0
175,1
176,1
177,1
178,0
179,1
180,1
181,0
182,1
183,0
184,0
185,1
186,0
187,1
188,1
189,1
190,1
191,1
192,1
193,1
194,1
195,0
196,1
197,0
198,1
199,1
200,0
201,0
202,0
203,0
204,1
205,1
206,1
207,1
208,1
209,1
210,1
211,1
212,1
213,0
214,0
215,0
216,1
217,0
218,1
219,1
220,0
221,1
222,1
223,1
224,0
225,0
226,0
227,0
228,1
229,0
230,0
231,0
232,0
233,1
234,1
235,1
236,0
237,0
238,1
239,1
240,1
241,1
242,1
243,1
244,0
245,0
246,1
247,1
248,1
249,1
250,1
251,1
252,1
253,1
254,1
255,0
256,1
257,0
258,1
259,0
260,0
261,1
262,0
263,1
264,1
265,1
266,1
267,1
268,1
269,1
270,0
271,1
272,0
273,0
274,1
275,1
276,0
277,1
278,1
279,0
280,1
281,1
282,1
283,1
284,0
285,1
286,1
287,1
288,1
289,1
290,0
291,1
292,0
293,1
294,1
295,1
296,0
297,1
298,1
299,1
300,0
301,0
302,1
303,1
304,1
305,1
306,1
307,1
308,1
309,0
310,0
311,0
312,0
313,0
314,0
315,0
316,0
317,0
318,0
319,0
320,0
321,0
322,0
323,1
324,1
325,0
326,1
327,1
328,1
329,0
330,1
331,1
332,0
333,0
334,1
335,1
336,1
337,1
338,1
339,1
340,1
341,1
342,1
343,1
344,1
345,1
346,1
347,1
348,1
349,1
350,1
351,1
352,1
353,1
354,1
355,1
356,1
357,0
358,1
359,0
360,0
361,0
362,0
363,0
364,1
365,1
366,1
367,1
368,1
369,1
370,1
371,0
372,0
373,1
374,1
375,1
376,0
377,0
378,1
379,1
380,1
381,1
382,1
383,1
384,1
385,1
386,1
387,1
388,1
389,1
390,1
391,1
392,1
393,1
394,1
395,1
396,1
397,1
398,1
399,1
400,1
401,1
402,1
403,1
404,1
405,1
406,1
407,1
408,1
409,1
410,1
411,1
412,1
413,1
414,1
415,1
416,0
417,1
418,1
419,1
420,1
421,1
422,1
423,1
424,1
425,1
426,1
427,1
428,1
429,1
430,1
431,1
432,1
433,1
434,1
435,1
436,1
437,1
438,1
439,1
440,1
441,0
442,1
443,1
444,0
445,1
446,1
447,0
448,1
449,1
450,0
451,1
452,0
453,1
454,1
455,1
456,1
457,1
458,1
459,1
460,1
461,1
462,1
463,1
464,1
465,1
466,0
467,0
468,1
469,0
470,1
471,1
472,1
473,1
474,1
475,1
476,1
477,1
478,1
479,1
480,1
481,1
482,1
483,1
484,1
485,1
486,1
487,0
488,0
489,0
490,1
491,1
492,1
493,1
494,0
495,0
496,0
497,0
498,0
499,0
500,0
501,0
502,0
503,0
504,0
505,0
506,0
507,1
508,0
509,1
510,0
511,0
512,0
513,0
514,0
515,0
516,0
517,0
518,0
519,0
520,1
521,1
522,1
523,1
524,1
525,1
526,1
527,1
528,1
529,1
530,0
531,0
532,1
533,1
534,0
535,1
536,1
537,1
538,0
539,1
540,1
541,1
542,1
543,1
544,1
545,1
546,0
547,1
548,1
549,1
550,0
551,0
552,0
553,0
554,1
555,1
556,0
557,1
558,0
559,1
560,1
561,1
562,1
563,1
564,1
565,1
566,1
567,0
568,0
569,0
570,0
571,1
572,1
573,0
574,1
575,1
576,1
577,1
578,1
579,1
580,1
581,1
582,1
583,1
584,1
585,1
586,1
587,1
588,1
589,0
590,0
591,0
592,0
593,0
594,0
595,0
596,0
597,0
598,0
599,0
600,0
601,1
602,1
603,1
604,0
605,0
606,1
607,0
608,0
609,1
610,1
611,1
612,1
613,1
614,1
615,1
616,1
617,1
618,1
619,1
620,1
621,1
622,1
623,1
624,1
625,1
626,0
627,0
628,1
629,1
630,0
631,0
632,0
633,0
634,0
635,0
636,0
637,0
638,0
639,0
640,0
641,0
642,1
643,0
644,1
645,1
646,0
647,0
648,1
649,0
650,0
651,0
652,0
653,1
654,1
655,1
656,1
657,0
658,0
659,0
660,0
661,1
662,0
663,1
664,1
665,0
666,1
667,0
668,1
669,1
670,1
671,1
672,1
673,1
674,1
675,1
676,1
677,1
678,1
679,0
680,0
681,1
682,1
683,0
684,1
685,1
686,0
687,0
688,1
689,0
690,0
691,0
692,0
693,0
694,1
695,1
696,0
697,0
698,0
699,0
700,1
701,1
702,1
703,1
704,1
705,1
706,0
707,0
708,0
709,1
710,1
711,1
712,1
713,1
714,1
715,0
716,0
717,1
718,1
719,0
720,1
721,1
722,1
723,0
724,1
725,1
726,1
727,0
728,0
729,0
730,1
731,1
732,1
733,1
734,1
735,0
736,1
737,1
738,1
739,0
740,0
741,0
742,1
743,0
744,0
745,0
746,0
747,1
748,1
749,1
750,0
751,1
752,0
753,1
754,1
755,1
756,1
757,1
758,0
759,0
760,1
761,1
762,1
763,0
764,1
765,1
766,0
767,0
768,1
769,1
770,1
771,1
772,1
773,0
774,1
775,1
776,0
777,1
778,1
779,1
780,1
781,1
782,0
783,0
784,0
785,1
786,0
787,1
788,1
789,0
790,1
791,1
792,0
793,0
794,0
795,0
796,1
797,0
798,0
799,0
800,0
801,0
802,0
803,0
804,0
805,0
806,0
807,0
808,0
809,0
810,1
811,0
812,0
813,0
814,1
815,1
816,1
817,0
818,1
819,0
820,1
821,1
822,1
823,1
824,1
825,1
826,0
827,1
828,1
829,1
830,0
831,0
832,1
833,0
834,0
835,0
836,0
837,1
838,0
839,0
840,0
841,0
842,0
843,0
844,0
845,0
846,0
847,0
848,0
849,0
850,0
851,0
852,0
853,1
854,0
855,0
856,1
857,1
858,1
859,0
860,1
861,1
862,0
863,1
864,0
865,1
866,0
867,1
868,1
869,0
870,0
871,0
872,0
873,0
874,0
875,0
876,0
877,1
878,1
879,1
880,0
881,0
882,0
883,1
884,1
885,0
886,0
887,1
888,1
889,0
890,0
891,0
892,1
893,1
894,1
895,1
896,0
897,0
898,0
899,0
900,0
